1 1194
2 1084
4 1062
5 1058
6 1018
43 1015
74 1007
96 997
138 990
265 986
272 918



1 1114
3 1092
4 1067
6 1060
10 1043
12 987
21 984
204 979
254 962



1 1162
2 1134
3 1063
6 1026
23 1018
24 998
76 993
192 975
194 971
320 965
427 954
978 936



1 1135
2 1083
5 1066
6 975
137 914



1 1145
2 1109
3 1040
5 1023
54 1019
62 1015
76 1014
96 1002
126 981
179 971
393 942



